Set parameter TokenServer to value "hpc-licenses.hpcc.usc.edu"
Set parameter TimeLimit to value 3600
Gurobi Optimizer version 9.5.1 build v9.5.1rc2 (linux64)
Thread count: 20 physical cores, 20 logical processors, using up to 20 threads
Optimize a model with 6007 rows, 4529 columns and 24534 nonzeros
Model fingerprint: 0xab1954f9
Variable types: 4506 continuous, 23 integer (23 binary)
Coefficient statistics:
  Matrix range     [1e+00, 1e+00]
  Objective range  [1e-03, 1e+00]
  Bounds range     [1e+00, 1e+00]
  RHS range        [1e+00, 1e+02]
Presolve removed 1520 rows and 1515 columns
Presolve time: 0.08s
Presolved: 4487 rows, 3014 columns, 21975 nonzeros
Variable types: 2994 continuous, 20 integer (20 binary)
Found heuristic solution: objective 224.3324217

Root relaxation: objective 2.334322e+02, 2888 iterations, 0.11 seconds (0.17 work units)

    Nodes    |    Current Node    |     Objective Bounds      |     Work
 Expl Unexpl |  Obj  Depth IntInf | Incumbent    BestBd   Gap | It/Node Time

     0     0  233.43215    0    2  224.33242  233.43215  4.06%     -    0s
     0     0  233.40008    0    4  224.33242  233.40008  4.04%     -    0s
H    0     0                     232.9711552  233.40008  0.18%     -    0s
     0     0  233.27717    0    4  232.97116  233.27717  0.13%     -    0s
     0     0  233.27717    0    2  232.97116  233.27717  0.13%     -    0s
     0     0  233.27717    0    4  232.97116  233.27717  0.13%     -    1s
     0     0  233.27717    0    4  232.97116  233.27717  0.13%     -    1s
     0     0  233.27717    0    4  232.97116  233.27717  0.13%     -    1s
     0     0  233.26894    0    4  232.97116  233.26894  0.13%     -    1s
     0     0  233.26894    0    4  232.97116  233.26894  0.13%     -    1s
     0     0  233.26894    0    4  232.97116  233.26894  0.13%     -    1s
     0     0  233.26894    0    4  232.97116  233.26894  0.13%     -    1s
     0     0  233.26894    0    4  232.97116  233.26894  0.13%     -    1s
     0     0  233.06579    0    4  232.97116  233.06579  0.04%     -    1s
     0     0  232.97116    0    4  232.97116  232.97116  0.00%     -    1s

Cutting planes:
  Gomory: 3
  MIR: 46
  RLT: 2

Explored 1 nodes (5263 simplex iterations) in 1.79 seconds (0.72 work units)
Thread count was 20 (of 20 available processors)

Solution count 2: 232.971 224.332 

Optimal solution found (tolerance 1.00e-04)
Best objective 2.329711551560e+02, best bound 2.329711551560e+02, gap 0.0000%



#########node  1
V1.7
#########node  2
0.07894736842105123,0.9210526315789488
#########node  3
1.0,0.0


Total Solving Time 2.2099480628967285
obj value 232.97115515601536
Policy Regret train (Sum) 4.147362670960024
Best Treatment Found train (%) 70.19999999999999
treatment classification acc train (%) 50.6
Policy Regret test (Sum) 63.74597884426457
Best Treatment Found test (%) 73.06
treatment classification acc test (%) 50.339999999999996
